<?xml version = "1.0" encoding="UTF-8" standalone="yes"?>
<CPLEXSolution version="1.2">
 <header
   problemName="/blues/gpfs/home/choy/Siplib/experiment/FULL_INSTANCE/DCAP/EV/DCAP_3_4_2_200_EV.mps"
   solutionName="incumbent"
   solutionIndex="-1"
   objectiveValue="3956.1640213801447"
   solutionTypeValue="3"
   solutionTypeString="primal"
   solutionStatusValue="101"
   solutionStatusString="integer optimal solution"
   solutionMethodString="mip"
   primalFeasible="1"
   dualFeasible="1"
   MIPNodes="0"
   MIPIterations="42"
   writeLevel="1"/>
 <quality
   epInt="1.0000000000000001e-05"
   epRHS="9.9999999999999995e-07"
   maxIntInfeas="0"
   maxPrimalInfeas="0"
   maxX="1"
   maxSlack="0.982572"/>
 <linearConstraints>
  <constraint name="CON1" index="0" slack="0.982572"/>
  <constraint name="CON2" index="1" slack="-0"/>
  <constraint name="CON3" index="2" slack="-0"/>
  <constraint name="CON4" index="3" slack="0.0074539999999999607"/>
  <constraint name="CON5" index="4" slack="0.97696500000000008"/>
  <constraint name="CON6" index="5" slack="-0"/>
  <constraint name="CON7" index="6" slack="0.017427999999999999"/>
  <constraint name="CON8" index="7" slack="-0"/>
  <constraint name="CON9" index="8" slack="-0"/>
  <constraint name="CON10" index="9" slack="-0"/>
  <constraint name="CON11" index="10" slack="0.023034999999999917"/>
  <constraint name="CON12" index="11" slack="-0"/>
  <constraint name="CON13" index="12" slack="0"/>
  <constraint name="CON14" index="13" slack="0"/>
  <constraint name="CON15" index="14" slack="0"/>
  <constraint name="CON16" index="15" slack="0"/>
  <constraint name="CON17" index="16" slack="0"/>
  <constraint name="CON18" index="17" slack="0"/>
  <constraint name="CON19" index="18" slack="0"/>
  <constraint name="CON20" index="19" slack="0"/>
 </linearConstraints>
 <variables>
  <variable name="x[1,1]" index="0" value="0.017427999999999999"/>
  <variable name="x[1,2]" index="1" value="1"/>
  <variable name="x[2,1]" index="2" value="0"/>
  <variable name="x[2,2]" index="3" value="0.99254600000000004"/>
  <variable name="x[3,1]" index="4" value="0.023034999999999917"/>
  <variable name="x[3,2]" index="5" value="1"/>
  <variable name="u[1,1]" index="6" value="1"/>
  <variable name="u[1,2]" index="7" value="1"/>
  <variable name="u[2,1]" index="8" value="0"/>
  <variable name="u[2,2]" index="9" value="1"/>
  <variable name="u[3,1]" index="10" value="1"/>
  <variable name="u[3,2]" index="11" value="1"/>
  <variable name="y[1,1,1]" index="12" value="0"/>
  <variable name="y[1,1,2]" index="13" value="1"/>
  <variable name="y[1,2,1]" index="14" value="0"/>
  <variable name="y[1,2,2]" index="15" value="-0"/>
  <variable name="y[1,3,1]" index="16" value="0"/>
  <variable name="y[1,3,2]" index="17" value="-0"/>
  <variable name="y[1,4,1]" index="18" value="0"/>
  <variable name="y[1,4,2]" index="19" value="-0"/>
  <variable name="y[2,1,1]" index="20" value="0"/>
  <variable name="y[2,1,2]" index="21" value="-0"/>
  <variable name="y[2,2,1]" index="22" value="0"/>
  <variable name="y[2,2,2]" index="23" value="1"/>
  <variable name="y[2,3,1]" index="24" value="0"/>
  <variable name="y[2,3,2]" index="25" value="0"/>
  <variable name="y[2,4,1]" index="26" value="0"/>
  <variable name="y[2,4,2]" index="27" value="-0"/>
  <variable name="y[3,1,1]" index="28" value="0"/>
  <variable name="y[3,1,2]" index="29" value="0"/>
  <variable name="y[3,2,1]" index="30" value="0"/>
  <variable name="y[3,2,2]" index="31" value="-0"/>
  <variable name="y[3,3,1]" index="32" value="0"/>
  <variable name="y[3,3,2]" index="33" value="-0"/>
  <variable name="y[3,4,1]" index="34" value="0"/>
  <variable name="y[3,4,2]" index="35" value="1"/>
  <variable name="z[1,1]" index="36" value="1"/>
  <variable name="z[1,2]" index="37" value="-0"/>
  <variable name="z[2,1]" index="38" value="1"/>
  <variable name="z[2,2]" index="39" value="-0"/>
  <variable name="z[3,1]" index="40" value="1"/>
  <variable name="z[3,2]" index="41" value="1"/>
  <variable name="z[4,1]" index="42" value="1"/>
  <variable name="z[4,2]" index="43" value="-0"/>
 </variables>
</CPLEXSolution>
